NAME : traveling-santa-2018-prime-paths.31519.tour
COMMENT : Length = 31519
COMMENT : Found by LKH [Keld Helsgaun] Sun Jun 12 19:59:54 2022
TYPE : TOUR
DIMENSION : 100
TOUR_SECTION
1
84
74
82
60
31
49
69
10
100
97
73
30
50
27
33
41
95
94
71
46
85
21
53
80
51
98
26
43
66
13
90
75
16
56
83
2
52
36
38
23
32
79
86
24
70
37
4
61
39
19
76
28
40
63
35
6
89
68
9
48
44
14
11
25
47
87
8
12
77
15
72
99
88
59
67
18
3
58
42
78
57
81
45
96
55
92
5
64
22
34
20
7
65
54
91
62
29
17
93
-1
EOF
